32 33
27
3 3 6 0
3 4 26 29
3 5 3 6
3 6 3 0
3 7 29 26
8 3 0 30
3 9 17 24
3 10 20 23
3 11 12 0
3 12 0 18
3 13 16 11
3 14 3 11
3 15 19 1
3 18 0 0
3 22 6 3
3 23 23 10
3 24 9 0
3 25 29 0
3 27 26 2
3 4 14 29
4 4 8 25
4 5 4 25
6 4 8 29
4 7 19 16
4 10 22 0
4 11 15 0
4 18 12 11
